s td 17 3 20
b 1 1 7
b 2 2 8
b 3 9 11
b 4 2 11
b 5 2 20
b 6 7 13
b 7 7 19
b 8 5 7 20
b 9 7 17 20
b 10 7 20
b 11 6 7 10
b 12 7 10 12
b 13 3
b 14 4 16
b 15 4 18
b 16 14
b 17 15
1 12
1 13
1 14
1 16
1 17
2 5
3 4
4 5
5 10
6 12
7 12
8 10
9 10
10 12
11 12
14 15
